Instance0
Gap





8.43%
8.43%
8.43%
7.62%
7.48%
6.43%
6.11%
5.94%
5.65%
5.42%
5.38%
5.00%
4.23%
4.23%
4.02%
3.82%
3.79%
3.79%
3.62%
2.85%
2.74%
2.18%
1.90%
1.86%
1.73%
1.67%
1.67%
0
CPXPARAM_MIP_Cuts_CPXPARAM_MIP_Cuts_Disjunctive-CPXPARAM_MIP_Cuts_LiftProj-CPXPARAM_MIP_Cuts_MIRCut-CPXPARAM_MIP_Cuts_FlowCovers 0
Instance1
CPXPARAM_MIP_Cuts_CPXPARAM_MIP_Cuts_Disjunctive-CPXPARAM_MIP_Cuts_LiftProj-CPXPARAM_MIP_Cuts_MIRCut-CPXPARAM_MIP_Cuts_FlowCovers 0
Instance2
CPXPARAM_MIP_Cuts_CPXPARAM_MIP_Cuts_Disjunctive-CPXPARAM_MIP_Cuts_LiftProj-CPXPARAM_MIP_Cuts_MIRCut-CPXPARAM_MIP_Cuts_FlowCovers 15
Instance3
CPXPARAM_MIP_Cuts_CPXPARAM_MIP_Cuts_Disjunctive-CPXPARAM_MIP_Cuts_LiftProj-CPXPARAM_MIP_Cuts_MIRCut-CPXPARAM_MIP_Cuts_FlowCovers 0
Instance4
Gap



67.68%
59.00%
57.36%
54.74%
54.67%
54.47%
54.09%
53.77%
52.45%
51.51%
51.32%
51.32%
51.29%
50.37%
50.32%
49.68%
48.81%
47.60%
47.46%
44.05%
41.28%
40.42%
40.38%
38.91%
37.06%
37.00%
34.53%
27.05%
27.05%
27.00%
24.44%
21.53%
17.58%
17.58%
17.58%
14.14%
12.22%
4.74%
0
CPXPARAM_MIP_Cuts_CPXPARAM_MIP_Cuts_Disjunctive-CPXPARAM_MIP_Cuts_LiftProj-CPXPARAM_MIP_Cuts_MIRCut-CPXPARAM_MIP_Cuts_FlowCovers 0
Instance5
CPXPARAM_MIP_Cuts_CPXPARAM_MIP_Cuts_Disjunctive-CPXPARAM_MIP_Cuts_LiftProj-CPXPARAM_MIP_Cuts_MIRCut-CPXPARAM_MIP_Cuts_FlowCovers 0
Instance6
CPXPARAM_MIP_Cuts_CPXPARAM_MIP_Cuts_Disjunctive-CPXPARAM_MIP_Cuts_LiftProj-CPXPARAM_MIP_Cuts_MIRCut-CPXPARAM_MIP_Cuts_FlowCovers 9
Instance7
CPXPARAM_MIP_Cuts_CPXPARAM_MIP_Cuts_Disjunctive-CPXPARAM_MIP_Cuts_LiftProj-CPXPARAM_MIP_Cuts_MIRCut-CPXPARAM_MIP_Cuts_FlowCovers 0
Instance8
Gap


0.35%
0.35%
0.35%
0
CPXPARAM_MIP_Cuts_CPXPARAM_MIP_Cuts_Disjunctive-CPXPARAM_MIP_Cuts_LiftProj-CPXPARAM_MIP_Cuts_MIRCut-CPXPARAM_MIP_Cuts_FlowCovers 0
Instance9
CPXPARAM_MIP_Cuts_CPXPARAM_MIP_Cuts_Disjunctive-CPXPARAM_MIP_Cuts_LiftProj-CPXPARAM_MIP_Cuts_MIRCut-CPXPARAM_MIP_Cuts_FlowCovers 0
Instance10
CPXPARAM_MIP_Cuts_CPXPARAM_MIP_Cuts_Disjunctive-CPXPARAM_MIP_Cuts_LiftProj-CPXPARAM_MIP_Cuts_MIRCut-CPXPARAM_MIP_Cuts_FlowCovers 0
Instance11
CPXPARAM_MIP_Cuts_CPXPARAM_MIP_Cuts_Disjunctive-CPXPARAM_MIP_Cuts_LiftProj-CPXPARAM_MIP_Cuts_MIRCut-CPXPARAM_MIP_Cuts_FlowCovers 0
Instance12
Gap

0.00%
0
CPXPARAM_MIP_Cuts_CPXPARAM_MIP_Cuts_Disjunctive-CPXPARAM_MIP_Cuts_LiftProj-CPXPARAM_MIP_Cuts_MIRCut-CPXPARAM_MIP_Cuts_FlowCovers 0
Instance13
CPXPARAM_MIP_Cuts_CPXPARAM_MIP_Cuts_Disjunctive-CPXPARAM_MIP_Cuts_LiftProj-CPXPARAM_MIP_Cuts_MIRCut-CPXPARAM_MIP_Cuts_FlowCovers 0
Instance14
CPXPARAM_MIP_Cuts_CPXPARAM_MIP_Cuts_Disjunctive-CPXPARAM_MIP_Cuts_LiftProj-CPXPARAM_MIP_Cuts_MIRCut-CPXPARAM_MIP_Cuts_FlowCovers 0
Instance15
CPXPARAM_MIP_Cuts_CPXPARAM_MIP_Cuts_Disjunctive-CPXPARAM_MIP_Cuts_LiftProj-CPXPARAM_MIP_Cuts_MIRCut-CPXPARAM_MIP_Cuts_FlowCovers 0
Instance16
Gap



5.62%
5.62%
5.62%
5.56%
5.35%
5.33%
5.00%
4.93%
4.87%
4.80%
4.70%
4.25%
3.82%
3.56%
3.26%
2.78%
2.41%
2.07%
1.91%
1.38%
1.38%
0.97%
0.62%
0.37%
0
CPXPARAM_MIP_Cuts_CPXPARAM_MIP_Cuts_Disjunctive-CPXPARAM_MIP_Cuts_LiftProj-CPXPARAM_MIP_Cuts_MIRCut-CPXPARAM_MIP_Cuts_FlowCovers 0
Instance17
CPXPARAM_MIP_Cuts_CPXPARAM_MIP_Cuts_Disjunctive-CPXPARAM_MIP_Cuts_LiftProj-CPXPARAM_MIP_Cuts_MIRCut-CPXPARAM_MIP_Cuts_FlowCovers 0
Instance18
CPXPARAM_MIP_Cuts_CPXPARAM_MIP_Cuts_Disjunctive-CPXPARAM_MIP_Cuts_LiftProj-CPXPARAM_MIP_Cuts_MIRCut-CPXPARAM_MIP_Cuts_FlowCovers 5
Instance19
CPXPARAM_MIP_Cuts_CPXPARAM_MIP_Cuts_Disjunctive-CPXPARAM_MIP_Cuts_LiftProj-CPXPARAM_MIP_Cuts_MIRCut-CPXPARAM_MIP_Cuts_FlowCovers 0
Instance20
Gap



74.62%
68.24%
61.48%
57.66%
56.72%
55.93%
55.60%
54.91%
53.14%
51.83%
51.16%
50.17%
48.50%
42.75%
41.20%
39.16%
37.47%
37.27%
36.41%
35.02%
34.72%
34.34%
33.58%
33.08%
32.23%
31.03%
28.54%
27.75%
26.18%
18.09%
16.79%
16.79%
16.79%
12.84%
10.11%
10.11%
6.45%
0
CPXPARAM_MIP_Cuts_CPXPARAM_MIP_Cuts_Disjunctive-CPXPARAM_MIP_Cuts_LiftProj-CPXPARAM_MIP_Cuts_MIRCut-CPXPARAM_MIP_Cuts_FlowCovers 0
Instance21
CPXPARAM_MIP_Cuts_CPXPARAM_MIP_Cuts_Disjunctive-CPXPARAM_MIP_Cuts_LiftProj-CPXPARAM_MIP_Cuts_MIRCut-CPXPARAM_MIP_Cuts_FlowCovers 0
Instance22
CPXPARAM_MIP_Cuts_CPXPARAM_MIP_Cuts_Disjunctive-CPXPARAM_MIP_Cuts_LiftProj-CPXPARAM_MIP_Cuts_MIRCut-CPXPARAM_MIP_Cuts_FlowCovers 8
Instance23
CPXPARAM_MIP_Cuts_CPXPARAM_MIP_Cuts_Disjunctive-CPXPARAM_MIP_Cuts_LiftProj-CPXPARAM_MIP_Cuts_MIRCut-CPXPARAM_MIP_Cuts_FlowCovers 0
Instance24
Gap
111.50%
92.96%
92.96%
92.96%
CPXPARAM_MIP_Cuts_CPXPARAM_MIP_Cuts_Disjunctive-CPXPARAM_MIP_Cuts_LiftProj-CPXPARAM_MIP_Cuts_MIRCut-CPXPARAM_MIP_Cuts_FlowCovers 0
Instance25
CPXPARAM_MIP_Cuts_CPXPARAM_MIP_Cuts_Disjunctive-CPXPARAM_MIP_Cuts_LiftProj-CPXPARAM_MIP_Cuts_MIRCut-CPXPARAM_MIP_Cuts_FlowCovers 0
Instance26
CPXPARAM_MIP_Cuts_CPXPARAM_MIP_Cuts_Disjunctive-CPXPARAM_MIP_Cuts_LiftProj-CPXPARAM_MIP_Cuts_MIRCut-CPXPARAM_MIP_Cuts_FlowCovers 0
Instance27
CPXPARAM_MIP_Cuts_CPXPARAM_MIP_Cuts_Disjunctive-CPXPARAM_MIP_Cuts_LiftProj-CPXPARAM_MIP_Cuts_MIRCut-CPXPARAM_MIP_Cuts_FlowCovers 1
Instance28
Gap

23.59%
23.59%
23.59%
23.59%
11.04%
CPXPARAM_MIP_Cuts_CPXPARAM_MIP_Cuts_Disjunctive-CPXPARAM_MIP_Cuts_LiftProj-CPXPARAM_MIP_Cuts_MIRCut-CPXPARAM_MIP_Cuts_FlowCovers 0
Instance29
CPXPARAM_MIP_Cuts_CPXPARAM_MIP_Cuts_Disjunctive-CPXPARAM_MIP_Cuts_LiftProj-CPXPARAM_MIP_Cuts_MIRCut-CPXPARAM_MIP_Cuts_FlowCovers 0
Instance30
CPXPARAM_MIP_Cuts_CPXPARAM_MIP_Cuts_Disjunctive-CPXPARAM_MIP_Cuts_LiftProj-CPXPARAM_MIP_Cuts_MIRCut-CPXPARAM_MIP_Cuts_FlowCovers 0
Instance31
CPXPARAM_MIP_Cuts_CPXPARAM_MIP_Cuts_Disjunctive-CPXPARAM_MIP_Cuts_LiftProj-CPXPARAM_MIP_Cuts_MIRCut-CPXPARAM_MIP_Cuts_FlowCovers 1
Instance32
Gap



3.04%
3.04%
3.04%
3.00%
3.00%
2.75%
2.70%
2.32%
2.30%
2.26%
1.84%
1.71%
1.53%
1.50%
1.34%
1.09%
0.90%
0.30%
0
CPXPARAM_MIP_Cuts_CPXPARAM_MIP_Cuts_Disjunctive-CPXPARAM_MIP_Cuts_LiftProj-CPXPARAM_MIP_Cuts_MIRCut-CPXPARAM_MIP_Cuts_FlowCovers 0
Instance33
CPXPARAM_MIP_Cuts_CPXPARAM_MIP_Cuts_Disjunctive-CPXPARAM_MIP_Cuts_LiftProj-CPXPARAM_MIP_Cuts_MIRCut-CPXPARAM_MIP_Cuts_FlowCovers 0
Instance34
CPXPARAM_MIP_Cuts_CPXPARAM_MIP_Cuts_Disjunctive-CPXPARAM_MIP_Cuts_LiftProj-CPXPARAM_MIP_Cuts_MIRCut-CPXPARAM_MIP_Cuts_FlowCovers 5
Instance35
CPXPARAM_MIP_Cuts_CPXPARAM_MIP_Cuts_Disjunctive-CPXPARAM_MIP_Cuts_LiftProj-CPXPARAM_MIP_Cuts_MIRCut-CPXPARAM_MIP_Cuts_FlowCovers 0
Instance36
Gap
























0
CPXPARAM_MIP_Cuts_CPXPARAM_MIP_Cuts_Disjunctive-CPXPARAM_MIP_Cuts_LiftProj-CPXPARAM_MIP_Cuts_MIRCut-CPXPARAM_MIP_Cuts_FlowCovers 0
Instance37
CPXPARAM_MIP_Cuts_CPXPARAM_MIP_Cuts_Disjunctive-CPXPARAM_MIP_Cuts_LiftProj-CPXPARAM_MIP_Cuts_MIRCut-CPXPARAM_MIP_Cuts_FlowCovers 0
Instance38
CPXPARAM_MIP_Cuts_CPXPARAM_MIP_Cuts_Disjunctive-CPXPARAM_MIP_Cuts_LiftProj-CPXPARAM_MIP_Cuts_MIRCut-CPXPARAM_MIP_Cuts_FlowCovers 14
Instance39
CPXPARAM_MIP_Cuts_CPXPARAM_MIP_Cuts_Disjunctive-CPXPARAM_MIP_Cuts_LiftProj-CPXPARAM_MIP_Cuts_MIRCut-CPXPARAM_MIP_Cuts_FlowCovers 2
Instance40
Gap

0.01%
CPXPARAM_MIP_Cuts_CPXPARAM_MIP_Cuts_Disjunctive-CPXPARAM_MIP_Cuts_LiftProj-CPXPARAM_MIP_Cuts_MIRCut-CPXPARAM_MIP_Cuts_FlowCovers 0
Instance41
CPXPARAM_MIP_Cuts_CPXPARAM_MIP_Cuts_Disjunctive-CPXPARAM_MIP_Cuts_LiftProj-CPXPARAM_MIP_Cuts_MIRCut-CPXPARAM_MIP_Cuts_FlowCovers 0
Instance42
CPXPARAM_MIP_Cuts_CPXPARAM_MIP_Cuts_Disjunctive-CPXPARAM_MIP_Cuts_LiftProj-CPXPARAM_MIP_Cuts_MIRCut-CPXPARAM_MIP_Cuts_FlowCovers 0
Instance43
CPXPARAM_MIP_Cuts_CPXPARAM_MIP_Cuts_Disjunctive-CPXPARAM_MIP_Cuts_LiftProj-CPXPARAM_MIP_Cuts_MIRCut-CPXPARAM_MIP_Cuts_FlowCovers 0
Instance44
Gap

0.02%
0.02%
0.02%
0
CPXPARAM_MIP_Cuts_CPXPARAM_MIP_Cuts_Disjunctive-CPXPARAM_MIP_Cuts_LiftProj-CPXPARAM_MIP_Cuts_MIRCut-CPXPARAM_MIP_Cuts_FlowCovers 0
Instance45
CPXPARAM_MIP_Cuts_CPXPARAM_MIP_Cuts_Disjunctive-CPXPARAM_MIP_Cuts_LiftProj-CPXPARAM_MIP_Cuts_MIRCut-CPXPARAM_MIP_Cuts_FlowCovers 0
Instance46
CPXPARAM_MIP_Cuts_CPXPARAM_MIP_Cuts_Disjunctive-CPXPARAM_MIP_Cuts_LiftProj-CPXPARAM_MIP_Cuts_MIRCut-CPXPARAM_MIP_Cuts_FlowCovers 0
Instance47
CPXPARAM_MIP_Cuts_CPXPARAM_MIP_Cuts_Disjunctive-CPXPARAM_MIP_Cuts_LiftProj-CPXPARAM_MIP_Cuts_MIRCut-CPXPARAM_MIP_Cuts_FlowCovers 0
Instance48
Gap


















8.95%
8.95%
8.95%
8.72%
8.42%
8.37%
8.28%
7.92%
7.67%
7.50%
7.30%
7.27%
7.12%
7.04%
6.96%
6.86%
6.85%
6.80%
CPXPARAM_MIP_Cuts_CPXPARAM_MIP_Cuts_Disjunctive-CPXPARAM_MIP_Cuts_LiftProj-CPXPARAM_MIP_Cuts_MIRCut-CPXPARAM_MIP_Cuts_FlowCovers 0
Instance49
CPXPARAM_MIP_Cuts_CPXPARAM_MIP_Cuts_Disjunctive-CPXPARAM_MIP_Cuts_LiftProj-CPXPARAM_MIP_Cuts_MIRCut-CPXPARAM_MIP_Cuts_FlowCovers 0
Instance50
CPXPARAM_MIP_Cuts_CPXPARAM_MIP_Cuts_Disjunctive-CPXPARAM_MIP_Cuts_LiftProj-CPXPARAM_MIP_Cuts_MIRCut-CPXPARAM_MIP_Cuts_FlowCovers 18
Instance51
CPXPARAM_MIP_Cuts_CPXPARAM_MIP_Cuts_Disjunctive-CPXPARAM_MIP_Cuts_LiftProj-CPXPARAM_MIP_Cuts_MIRCut-CPXPARAM_MIP_Cuts_FlowCovers 0
Instance52
Gap

37.35%
36.13%
33.68%
30.91%
28.81%
25.76%
24.84%
24.26%
24.15%
23.73%
23.72%
23.61%
23.54%
23.38%
23.31%
23.26%
23.23%
22.95%
22.61%
22.49%
22.21%
22.13%
21.49%
21.18%
20.90%
20.79%
20.65%
20.29%
20.23%
CPXPARAM_MIP_Cuts_CPXPARAM_MIP_Cuts_Disjunctive-CPXPARAM_MIP_Cuts_LiftProj-CPXPARAM_MIP_Cuts_MIRCut-CPXPARAM_MIP_Cuts_FlowCovers 0
Instance53
CPXPARAM_MIP_Cuts_CPXPARAM_MIP_Cuts_Disjunctive-CPXPARAM_MIP_Cuts_LiftProj-CPXPARAM_MIP_Cuts_MIRCut-CPXPARAM_MIP_Cuts_FlowCovers 0
Instance54
CPXPARAM_MIP_Cuts_CPXPARAM_MIP_Cuts_Disjunctive-CPXPARAM_MIP_Cuts_LiftProj-CPXPARAM_MIP_Cuts_MIRCut-CPXPARAM_MIP_Cuts_FlowCovers 13
Instance55
CPXPARAM_MIP_Cuts_CPXPARAM_MIP_Cuts_Disjunctive-CPXPARAM_MIP_Cuts_LiftProj-CPXPARAM_MIP_Cuts_MIRCut-CPXPARAM_MIP_Cuts_FlowCovers 0
Instance56
Gap

1.86%
1.86%
1.86%
1.86%
0
CPXPARAM_MIP_Cuts_CPXPARAM_MIP_Cuts_Disjunctive-CPXPARAM_MIP_Cuts_LiftProj-CPXPARAM_MIP_Cuts_MIRCut-CPXPARAM_MIP_Cuts_FlowCovers 0
Instance57
CPXPARAM_MIP_Cuts_CPXPARAM_MIP_Cuts_Disjunctive-CPXPARAM_MIP_Cuts_LiftProj-CPXPARAM_MIP_Cuts_MIRCut-CPXPARAM_MIP_Cuts_FlowCovers 0
Instance58
CPXPARAM_MIP_Cuts_CPXPARAM_MIP_Cuts_Disjunctive-CPXPARAM_MIP_Cuts_LiftProj-CPXPARAM_MIP_Cuts_MIRCut-CPXPARAM_MIP_Cuts_FlowCovers 0
Instance59
CPXPARAM_MIP_Cuts_CPXPARAM_MIP_Cuts_Disjunctive-CPXPARAM_MIP_Cuts_LiftProj-CPXPARAM_MIP_Cuts_MIRCut-CPXPARAM_MIP_Cuts_FlowCovers 1
Instance60
Gap
112.51%
98.57%
98.57%
29.55%
29.55%
29.55%
CPXPARAM_MIP_Cuts_CPXPARAM_MIP_Cuts_Disjunctive-CPXPARAM_MIP_Cuts_LiftProj-CPXPARAM_MIP_Cuts_MIRCut-CPXPARAM_MIP_Cuts_FlowCovers 0
Instance61
CPXPARAM_MIP_Cuts_CPXPARAM_MIP_Cuts_Disjunctive-CPXPARAM_MIP_Cuts_LiftProj-CPXPARAM_MIP_Cuts_MIRCut-CPXPARAM_MIP_Cuts_FlowCovers 0
Instance62
CPXPARAM_MIP_Cuts_CPXPARAM_MIP_Cuts_Disjunctive-CPXPARAM_MIP_Cuts_LiftProj-CPXPARAM_MIP_Cuts_MIRCut-CPXPARAM_MIP_Cuts_FlowCovers 0
Instance63
CPXPARAM_MIP_Cuts_CPXPARAM_MIP_Cuts_Disjunctive-CPXPARAM_MIP_Cuts_LiftProj-CPXPARAM_MIP_Cuts_MIRCut-CPXPARAM_MIP_Cuts_FlowCovers 2
Instance64
Gap



1.66%
1.66%
1.66%
1.65%
1.60%
1.36%
1.34%
1.34%
1.33%
1.33%
0.00%
CPXPARAM_MIP_Cuts_CPXPARAM_MIP_Cuts_Disjunctive-CPXPARAM_MIP_Cuts_LiftProj-CPXPARAM_MIP_Cuts_MIRCut-CPXPARAM_MIP_Cuts_FlowCovers 0
Instance65
CPXPARAM_MIP_Cuts_CPXPARAM_MIP_Cuts_Disjunctive-CPXPARAM_MIP_Cuts_LiftProj-CPXPARAM_MIP_Cuts_MIRCut-CPXPARAM_MIP_Cuts_FlowCovers 1
Instance66
CPXPARAM_MIP_Cuts_CPXPARAM_MIP_Cuts_Disjunctive-CPXPARAM_MIP_Cuts_LiftProj-CPXPARAM_MIP_Cuts_MIRCut-CPXPARAM_MIP_Cuts_FlowCovers 3
Instance67
CPXPARAM_MIP_Cuts_CPXPARAM_MIP_Cuts_Disjunctive-CPXPARAM_MIP_Cuts_LiftProj-CPXPARAM_MIP_Cuts_MIRCut-CPXPARAM_MIP_Cuts_FlowCovers 2
Instance68
Gap



47.95%
46.03%
43.51%
42.85%
42.31%
42.16%
41.83%
41.81%
40.75%
CPXPARAM_MIP_Cuts_CPXPARAM_MIP_Cuts_Disjunctive-CPXPARAM_MIP_Cuts_LiftProj-CPXPARAM_MIP_Cuts_MIRCut-CPXPARAM_MIP_Cuts_FlowCovers 0
Instance69
CPXPARAM_MIP_Cuts_CPXPARAM_MIP_Cuts_Disjunctive-CPXPARAM_MIP_Cuts_LiftProj-CPXPARAM_MIP_Cuts_MIRCut-CPXPARAM_MIP_Cuts_FlowCovers 0
Instance70
CPXPARAM_MIP_Cuts_CPXPARAM_MIP_Cuts_Disjunctive-CPXPARAM_MIP_Cuts_LiftProj-CPXPARAM_MIP_Cuts_MIRCut-CPXPARAM_MIP_Cuts_FlowCovers 4
Instance71
CPXPARAM_MIP_Cuts_CPXPARAM_MIP_Cuts_Disjunctive-CPXPARAM_MIP_Cuts_LiftProj-CPXPARAM_MIP_Cuts_MIRCut-CPXPARAM_MIP_Cuts_FlowCovers 6
Instance72
Gap
110.91%
93.14%
93.14%
0.05%
0.05%
0.05%
0
CPXPARAM_MIP_Cuts_CPXPARAM_MIP_Cuts_Disjunctive-CPXPARAM_MIP_Cuts_LiftProj-CPXPARAM_MIP_Cuts_MIRCut-CPXPARAM_MIP_Cuts_FlowCovers 0
Instance73
CPXPARAM_MIP_Cuts_CPXPARAM_MIP_Cuts_Disjunctive-CPXPARAM_MIP_Cuts_LiftProj-CPXPARAM_MIP_Cuts_MIRCut-CPXPARAM_MIP_Cuts_FlowCovers 0
Instance74
CPXPARAM_MIP_Cuts_CPXPARAM_MIP_Cuts_Disjunctive-CPXPARAM_MIP_Cuts_LiftProj-CPXPARAM_MIP_Cuts_MIRCut-CPXPARAM_MIP_Cuts_FlowCovers 1
Instance75
CPXPARAM_MIP_Cuts_CPXPARAM_MIP_Cuts_Disjunctive-CPXPARAM_MIP_Cuts_LiftProj-CPXPARAM_MIP_Cuts_MIRCut-CPXPARAM_MIP_Cuts_FlowCovers 2
Instance76
Gap
114.31%
97.72%
97.72%
1.26%
1.26%
1.26%
1.26%
1.26%
1.21%
CPXPARAM_MIP_Cuts_CPXPARAM_MIP_Cuts_Disjunctive-CPXPARAM_MIP_Cuts_LiftProj-CPXPARAM_MIP_Cuts_MIRCut-CPXPARAM_MIP_Cuts_FlowCovers 0
Instance77
CPXPARAM_MIP_Cuts_CPXPARAM_MIP_Cuts_Disjunctive-CPXPARAM_MIP_Cuts_LiftProj-CPXPARAM_MIP_Cuts_MIRCut-CPXPARAM_MIP_Cuts_FlowCovers 1
Instance78
CPXPARAM_MIP_Cuts_CPXPARAM_MIP_Cuts_Disjunctive-CPXPARAM_MIP_Cuts_LiftProj-CPXPARAM_MIP_Cuts_MIRCut-CPXPARAM_MIP_Cuts_FlowCovers 0
Instance79
CPXPARAM_MIP_Cuts_CPXPARAM_MIP_Cuts_Disjunctive-CPXPARAM_MIP_Cuts_LiftProj-CPXPARAM_MIP_Cuts_MIRCut-CPXPARAM_MIP_Cuts_FlowCovers 2
Instance80
Gap


0.00%
CPXPARAM_MIP_Cuts_CPXPARAM_MIP_Cuts_Disjunctive-CPXPARAM_MIP_Cuts_LiftProj-CPXPARAM_MIP_Cuts_MIRCut-CPXPARAM_MIP_Cuts_FlowCovers 0
Instance81
CPXPARAM_MIP_Cuts_CPXPARAM_MIP_Cuts_Disjunctive-CPXPARAM_MIP_Cuts_LiftProj-CPXPARAM_MIP_Cuts_MIRCut-CPXPARAM_MIP_Cuts_FlowCovers 0
Instance82
CPXPARAM_MIP_Cuts_CPXPARAM_MIP_Cuts_Disjunctive-CPXPARAM_MIP_Cuts_LiftProj-CPXPARAM_MIP_Cuts_MIRCut-CPXPARAM_MIP_Cuts_FlowCovers 0
Instance83
CPXPARAM_MIP_Cuts_CPXPARAM_MIP_Cuts_Disjunctive-CPXPARAM_MIP_Cuts_LiftProj-CPXPARAM_MIP_Cuts_MIRCut-CPXPARAM_MIP_Cuts_FlowCovers 0
Instance84
Gap



23.11%
16.33%
14.19%
14.19%
14.19%
12.22%
11.89%
11.11%
0
CPXPARAM_MIP_Cuts_CPXPARAM_MIP_Cuts_Disjunctive-CPXPARAM_MIP_Cuts_LiftProj-CPXPARAM_MIP_Cuts_MIRCut-CPXPARAM_MIP_Cuts_FlowCovers 0
Instance85
CPXPARAM_MIP_Cuts_CPXPARAM_MIP_Cuts_Disjunctive-CPXPARAM_MIP_Cuts_LiftProj-CPXPARAM_MIP_Cuts_MIRCut-CPXPARAM_MIP_Cuts_FlowCovers 0
Instance86
CPXPARAM_MIP_Cuts_CPXPARAM_MIP_Cuts_Disjunctive-CPXPARAM_MIP_Cuts_LiftProj-CPXPARAM_MIP_Cuts_MIRCut-CPXPARAM_MIP_Cuts_FlowCovers 1
Instance87
CPXPARAM_MIP_Cuts_CPXPARAM_MIP_Cuts_Disjunctive-CPXPARAM_MIP_Cuts_LiftProj-CPXPARAM_MIP_Cuts_MIRCut-CPXPARAM_MIP_Cuts_FlowCovers 5
Instance88
Gap

0.39%
0.39%
0.39%
0.39%
0.39%
0.36%
0.33%
CPXPARAM_MIP_Cuts_CPXPARAM_MIP_Cuts_Disjunctive-CPXPARAM_MIP_Cuts_LiftProj-CPXPARAM_MIP_Cuts_MIRCut-CPXPARAM_MIP_Cuts_FlowCovers 0
Instance89
CPXPARAM_MIP_Cuts_CPXPARAM_MIP_Cuts_Disjunctive-CPXPARAM_MIP_Cuts_LiftProj-CPXPARAM_MIP_Cuts_MIRCut-CPXPARAM_MIP_Cuts_FlowCovers 0
Instance90
CPXPARAM_MIP_Cuts_CPXPARAM_MIP_Cuts_Disjunctive-CPXPARAM_MIP_Cuts_LiftProj-CPXPARAM_MIP_Cuts_MIRCut-CPXPARAM_MIP_Cuts_FlowCovers 1
Instance91
CPXPARAM_MIP_Cuts_CPXPARAM_MIP_Cuts_Disjunctive-CPXPARAM_MIP_Cuts_LiftProj-CPXPARAM_MIP_Cuts_MIRCut-CPXPARAM_MIP_Cuts_FlowCovers 1
Instance92
Gap

3.15%
3.15%
3.15%
3.10%
0
CPXPARAM_MIP_Cuts_CPXPARAM_MIP_Cuts_Disjunctive-CPXPARAM_MIP_Cuts_LiftProj-CPXPARAM_MIP_Cuts_MIRCut-CPXPARAM_MIP_Cuts_FlowCovers 0
Instance93
CPXPARAM_MIP_Cuts_CPXPARAM_MIP_Cuts_Disjunctive-CPXPARAM_MIP_Cuts_LiftProj-CPXPARAM_MIP_Cuts_MIRCut-CPXPARAM_MIP_Cuts_FlowCovers 0
Instance94
CPXPARAM_MIP_Cuts_CPXPARAM_MIP_Cuts_Disjunctive-CPXPARAM_MIP_Cuts_LiftProj-CPXPARAM_MIP_Cuts_MIRCut-CPXPARAM_MIP_Cuts_FlowCovers 1
Instance95
CPXPARAM_MIP_Cuts_CPXPARAM_MIP_Cuts_Disjunctive-CPXPARAM_MIP_Cuts_LiftProj-CPXPARAM_MIP_Cuts_MIRCut-CPXPARAM_MIP_Cuts_FlowCovers 0
Instance96
Gap

10.00%
9.93%
7.82%
7.82%
7.82%
7.47%
7.18%
7.17%
6.42%
4.96%
4.41%
2.63%
2.63%
1.11%
0
CPXPARAM_MIP_Cuts_CPXPARAM_MIP_Cuts_Disjunctive-CPXPARAM_MIP_Cuts_LiftProj-CPXPARAM_MIP_Cuts_MIRCut-CPXPARAM_MIP_Cuts_FlowCovers 1
Instance97
CPXPARAM_MIP_Cuts_CPXPARAM_MIP_Cuts_Disjunctive-CPXPARAM_MIP_Cuts_LiftProj-CPXPARAM_MIP_Cuts_MIRCut-CPXPARAM_MIP_Cuts_FlowCovers 1
Instance98
CPXPARAM_MIP_Cuts_CPXPARAM_MIP_Cuts_Disjunctive-CPXPARAM_MIP_Cuts_LiftProj-CPXPARAM_MIP_Cuts_MIRCut-CPXPARAM_MIP_Cuts_FlowCovers 4
Instance99
CPXPARAM_MIP_Cuts_CPXPARAM_MIP_Cuts_Disjunctive-CPXPARAM_MIP_Cuts_LiftProj-CPXPARAM_MIP_Cuts_MIRCut-CPXPARAM_MIP_Cuts_FlowCovers 0
Instance100
Gap



0.00%
CPXPARAM_MIP_Cuts_CPXPARAM_MIP_Cuts_Disjunctive-CPXPARAM_MIP_Cuts_LiftProj-CPXPARAM_MIP_Cuts_MIRCut-CPXPARAM_MIP_Cuts_FlowCovers 0
Instance101
CPXPARAM_MIP_Cuts_CPXPARAM_MIP_Cuts_Disjunctive-CPXPARAM_MIP_Cuts_LiftProj-CPXPARAM_MIP_Cuts_MIRCut-CPXPARAM_MIP_Cuts_FlowCovers 0
Instance102
CPXPARAM_MIP_Cuts_CPXPARAM_MIP_Cuts_Disjunctive-CPXPARAM_MIP_Cuts_LiftProj-CPXPARAM_MIP_Cuts_MIRCut-CPXPARAM_MIP_Cuts_FlowCovers 0
Instance103
CPXPARAM_MIP_Cuts_CPXPARAM_MIP_Cuts_Disjunctive-CPXPARAM_MIP_Cuts_LiftProj-CPXPARAM_MIP_Cuts_MIRCut-CPXPARAM_MIP_Cuts_FlowCovers 0
Instance104
Gap
0.00%
CPXPARAM_MIP_Cuts_CPXPARAM_MIP_Cuts_Disjunctive-CPXPARAM_MIP_Cuts_LiftProj-CPXPARAM_MIP_Cuts_MIRCut-CPXPARAM_MIP_Cuts_FlowCovers 0
Instance105
CPXPARAM_MIP_Cuts_CPXPARAM_MIP_Cuts_Disjunctive-CPXPARAM_MIP_Cuts_LiftProj-CPXPARAM_MIP_Cuts_MIRCut-CPXPARAM_MIP_Cuts_FlowCovers 0
Instance106
CPXPARAM_MIP_Cuts_CPXPARAM_MIP_Cuts_Disjunctive-CPXPARAM_MIP_Cuts_LiftProj-CPXPARAM_MIP_Cuts_MIRCut-CPXPARAM_MIP_Cuts_FlowCovers 0
Instance107
CPXPARAM_MIP_Cuts_CPXPARAM_MIP_Cuts_Disjunctive-CPXPARAM_MIP_Cuts_LiftProj-CPXPARAM_MIP_Cuts_MIRCut-CPXPARAM_MIP_Cuts_FlowCovers 0
Instance108
Gap

0.42%
0.42%
0.42%
0.42%
0.42%
0.42%
0.33%
CPXPARAM_MIP_Cuts_CPXPARAM_MIP_Cuts_Disjunctive-CPXPARAM_MIP_Cuts_LiftProj-CPXPARAM_MIP_Cuts_MIRCut-CPXPARAM_MIP_Cuts_FlowCovers 0
Instance109
CPXPARAM_MIP_Cuts_CPXPARAM_MIP_Cuts_Disjunctive-CPXPARAM_MIP_Cuts_LiftProj-CPXPARAM_MIP_Cuts_MIRCut-CPXPARAM_MIP_Cuts_FlowCovers 0
Instance110
CPXPARAM_MIP_Cuts_CPXPARAM_MIP_Cuts_Disjunctive-CPXPARAM_MIP_Cuts_LiftProj-CPXPARAM_MIP_Cuts_MIRCut-CPXPARAM_MIP_Cuts_FlowCovers 1
Instance111
CPXPARAM_MIP_Cuts_CPXPARAM_MIP_Cuts_Disjunctive-CPXPARAM_MIP_Cuts_LiftProj-CPXPARAM_MIP_Cuts_MIRCut-CPXPARAM_MIP_Cuts_FlowCovers 1
Instance112
Gap



9.39%
9.39%
9.39%
8.57%
8.27%
8.08%
7.25%
7.23%
7.16%
6.83%
6.74%
6.56%
3.25%
2.96%
2.04%
1.90%
1.75%
1.54%
0.90%
0.72%
0.55%
0.55%
0.00%
CPXPARAM_MIP_Cuts_CPXPARAM_MIP_Cuts_Disjunctive-CPXPARAM_MIP_Cuts_LiftProj-CPXPARAM_MIP_Cuts_MIRCut-CPXPARAM_MIP_Cuts_FlowCovers 0
Instance113
CPXPARAM_MIP_Cuts_CPXPARAM_MIP_Cuts_Disjunctive-CPXPARAM_MIP_Cuts_LiftProj-CPXPARAM_MIP_Cuts_MIRCut-CPXPARAM_MIP_Cuts_FlowCovers 0
Instance114
CPXPARAM_MIP_Cuts_CPXPARAM_MIP_Cuts_Disjunctive-CPXPARAM_MIP_Cuts_LiftProj-CPXPARAM_MIP_Cuts_MIRCut-CPXPARAM_MIP_Cuts_FlowCovers 7
Instance115
CPXPARAM_MIP_Cuts_CPXPARAM_MIP_Cuts_Disjunctive-CPXPARAM_MIP_Cuts_LiftProj-CPXPARAM_MIP_Cuts_MIRCut-CPXPARAM_MIP_Cuts_FlowCovers 0
Instance116
Gap
111.49%
406.57%
82.87%
82.87%
82.87%
82.87%
CPXPARAM_MIP_Cuts_CPXPARAM_MIP_Cuts_Disjunctive-CPXPARAM_MIP_Cuts_LiftProj-CPXPARAM_MIP_Cuts_MIRCut-CPXPARAM_MIP_Cuts_FlowCovers 1
Instance117
CPXPARAM_MIP_Cuts_CPXPARAM_MIP_Cuts_Disjunctive-CPXPARAM_MIP_Cuts_LiftProj-CPXPARAM_MIP_Cuts_MIRCut-CPXPARAM_MIP_Cuts_FlowCovers 1
Instance118
CPXPARAM_MIP_Cuts_CPXPARAM_MIP_Cuts_Disjunctive-CPXPARAM_MIP_Cuts_LiftProj-CPXPARAM_MIP_Cuts_MIRCut-CPXPARAM_MIP_Cuts_FlowCovers 3
Instance119
CPXPARAM_MIP_Cuts_CPXPARAM_MIP_Cuts_Disjunctive-CPXPARAM_MIP_Cuts_LiftProj-CPXPARAM_MIP_Cuts_MIRCut-CPXPARAM_MIP_Cuts_FlowCovers 0
Instance120
Gap
120.75%
227.70%
17.33%
17.33%
0.85%
0.85%
0.85%
0.85%
0.85%
0.85%
CPXPARAM_MIP_Cuts_CPXPARAM_MIP_Cuts_Disjunctive-CPXPARAM_MIP_Cuts_LiftProj-CPXPARAM_MIP_Cuts_MIRCut-CPXPARAM_MIP_Cuts_FlowCovers 0
Instance121
CPXPARAM_MIP_Cuts_CPXPARAM_MIP_Cuts_Disjunctive-CPXPARAM_MIP_Cuts_LiftProj-CPXPARAM_MIP_Cuts_MIRCut-CPXPARAM_MIP_Cuts_FlowCovers 0
Instance122
CPXPARAM_MIP_Cuts_CPXPARAM_MIP_Cuts_Disjunctive-CPXPARAM_MIP_Cuts_LiftProj-CPXPARAM_MIP_Cuts_MIRCut-CPXPARAM_MIP_Cuts_FlowCovers 2
Instance123
CPXPARAM_MIP_Cuts_CPXPARAM_MIP_Cuts_Disjunctive-CPXPARAM_MIP_Cuts_LiftProj-CPXPARAM_MIP_Cuts_MIRCut-CPXPARAM_MIP_Cuts_FlowCovers 0
Instance124
Gap

5.20%
5.20%
5.20%
5.20%
1.76%
CPXPARAM_MIP_Cuts_CPXPARAM_MIP_Cuts_Disjunctive-CPXPARAM_MIP_Cuts_LiftProj-CPXPARAM_MIP_Cuts_MIRCut-CPXPARAM_MIP_Cuts_FlowCovers 0
Instance125
CPXPARAM_MIP_Cuts_CPXPARAM_MIP_Cuts_Disjunctive-CPXPARAM_MIP_Cuts_LiftProj-CPXPARAM_MIP_Cuts_MIRCut-CPXPARAM_MIP_Cuts_FlowCovers 0
Instance126
CPXPARAM_MIP_Cuts_CPXPARAM_MIP_Cuts_Disjunctive-CPXPARAM_MIP_Cuts_LiftProj-CPXPARAM_MIP_Cuts_MIRCut-CPXPARAM_MIP_Cuts_FlowCovers 0
Instance127
CPXPARAM_MIP_Cuts_CPXPARAM_MIP_Cuts_Disjunctive-CPXPARAM_MIP_Cuts_LiftProj-CPXPARAM_MIP_Cuts_MIRCut-CPXPARAM_MIP_Cuts_FlowCovers 1
Instance128
Gap





4.19%
4.19%
4.19%
0
CPXPARAM_MIP_Cuts_CPXPARAM_MIP_Cuts_Disjunctive-CPXPARAM_MIP_Cuts_LiftProj-CPXPARAM_MIP_Cuts_MIRCut-CPXPARAM_MIP_Cuts_FlowCovers 0
Instance129
CPXPARAM_MIP_Cuts_CPXPARAM_MIP_Cuts_Disjunctive-CPXPARAM_MIP_Cuts_LiftProj-CPXPARAM_MIP_Cuts_MIRCut-CPXPARAM_MIP_Cuts_FlowCovers 0
Instance130
CPXPARAM_MIP_Cuts_CPXPARAM_MIP_Cuts_Disjunctive-CPXPARAM_MIP_Cuts_LiftProj-CPXPARAM_MIP_Cuts_MIRCut-CPXPARAM_MIP_Cuts_FlowCovers 2
Instance131
CPXPARAM_MIP_Cuts_CPXPARAM_MIP_Cuts_Disjunctive-CPXPARAM_MIP_Cuts_LiftProj-CPXPARAM_MIP_Cuts_MIRCut-CPXPARAM_MIP_Cuts_FlowCovers 7
Instance132
Gap



36.97%
0
CPXPARAM_MIP_Cuts_CPXPARAM_MIP_Cuts_Disjunctive-CPXPARAM_MIP_Cuts_LiftProj-CPXPARAM_MIP_Cuts_MIRCut-CPXPARAM_MIP_Cuts_FlowCovers 0
Instance133
CPXPARAM_MIP_Cuts_CPXPARAM_MIP_Cuts_Disjunctive-CPXPARAM_MIP_Cuts_LiftProj-CPXPARAM_MIP_Cuts_MIRCut-CPXPARAM_MIP_Cuts_FlowCovers 0
Instance134
CPXPARAM_MIP_Cuts_CPXPARAM_MIP_Cuts_Disjunctive-CPXPARAM_MIP_Cuts_LiftProj-CPXPARAM_MIP_Cuts_MIRCut-CPXPARAM_MIP_Cuts_FlowCovers 0
Instance135
CPXPARAM_MIP_Cuts_CPXPARAM_MIP_Cuts_Disjunctive-CPXPARAM_MIP_Cuts_LiftProj-CPXPARAM_MIP_Cuts_MIRCut-CPXPARAM_MIP_Cuts_FlowCovers 4
Instance136
Gap

0.14%
0
CPXPARAM_MIP_Cuts_CPXPARAM_MIP_Cuts_Disjunctive-CPXPARAM_MIP_Cuts_LiftProj-CPXPARAM_MIP_Cuts_MIRCut-CPXPARAM_MIP_Cuts_FlowCovers 0
Instance137
CPXPARAM_MIP_Cuts_CPXPARAM_MIP_Cuts_Disjunctive-CPXPARAM_MIP_Cuts_LiftProj-CPXPARAM_MIP_Cuts_MIRCut-CPXPARAM_MIP_Cuts_FlowCovers 0
Instance138
CPXPARAM_MIP_Cuts_CPXPARAM_MIP_Cuts_Disjunctive-CPXPARAM_MIP_Cuts_LiftProj-CPXPARAM_MIP_Cuts_MIRCut-CPXPARAM_MIP_Cuts_FlowCovers 0
Instance139
CPXPARAM_MIP_Cuts_CPXPARAM_MIP_Cuts_Disjunctive-CPXPARAM_MIP_Cuts_LiftProj-CPXPARAM_MIP_Cuts_MIRCut-CPXPARAM_MIP_Cuts_FlowCovers 0
Instance140
Gap

2.41%
2.41%
2.41%
2.38%
0
CPXPARAM_MIP_Cuts_CPXPARAM_MIP_Cuts_Disjunctive-CPXPARAM_MIP_Cuts_LiftProj-CPXPARAM_MIP_Cuts_MIRCut-CPXPARAM_MIP_Cuts_FlowCovers 0
Instance141
CPXPARAM_MIP_Cuts_CPXPARAM_MIP_Cuts_Disjunctive-CPXPARAM_MIP_Cuts_LiftProj-CPXPARAM_MIP_Cuts_MIRCut-CPXPARAM_MIP_Cuts_FlowCovers 0
Instance142
CPXPARAM_MIP_Cuts_CPXPARAM_MIP_Cuts_Disjunctive-CPXPARAM_MIP_Cuts_LiftProj-CPXPARAM_MIP_Cuts_MIRCut-CPXPARAM_MIP_Cuts_FlowCovers 1
Instance143
CPXPARAM_MIP_Cuts_CPXPARAM_MIP_Cuts_Disjunctive-CPXPARAM_MIP_Cuts_LiftProj-CPXPARAM_MIP_Cuts_MIRCut-CPXPARAM_MIP_Cuts_FlowCovers 0
Instance144
Gap



7.01%
7.01%
7.01%
6.96%
6.39%
6.25%
0
CPXPARAM_MIP_Cuts_CPXPARAM_MIP_Cuts_Disjunctive-CPXPARAM_MIP_Cuts_LiftProj-CPXPARAM_MIP_Cuts_MIRCut-CPXPARAM_MIP_Cuts_FlowCovers 0
Instance145
CPXPARAM_MIP_Cuts_CPXPARAM_MIP_Cuts_Disjunctive-CPXPARAM_MIP_Cuts_LiftProj-CPXPARAM_MIP_Cuts_MIRCut-CPXPARAM_MIP_Cuts_FlowCovers 0
Instance146
CPXPARAM_MIP_Cuts_CPXPARAM_MIP_Cuts_Disjunctive-CPXPARAM_MIP_Cuts_LiftProj-CPXPARAM_MIP_Cuts_MIRCut-CPXPARAM_MIP_Cuts_FlowCovers 3
Instance147
CPXPARAM_MIP_Cuts_CPXPARAM_MIP_Cuts_Disjunctive-CPXPARAM_MIP_Cuts_LiftProj-CPXPARAM_MIP_Cuts_MIRCut-CPXPARAM_MIP_Cuts_FlowCovers 3
Instance148
Gap





























60.24%
57.51%
54.43%
54.14%
53.27%
52.49%
50.13%
43.48%
42.82%
42.06%
40.83%
39.81%
37.36%
36.96%
35.85%
32.82%
30.39%
23.30%
23.30%
23.30%
17.48%
6.63%
3.57%
0
CPXPARAM_MIP_Cuts_CPXPARAM_MIP_Cuts_Disjunctive-CPXPARAM_MIP_Cuts_LiftProj-CPXPARAM_MIP_Cuts_MIRCut-CPXPARAM_MIP_Cuts_FlowCovers 1
Instance149
CPXPARAM_MIP_Cuts_CPXPARAM_MIP_Cuts_Disjunctive-CPXPARAM_MIP_Cuts_LiftProj-CPXPARAM_MIP_Cuts_MIRCut-CPXPARAM_MIP_Cuts_FlowCovers 0
Instance150
CPXPARAM_MIP_Cuts_CPXPARAM_MIP_Cuts_Disjunctive-CPXPARAM_MIP_Cuts_LiftProj-CPXPARAM_MIP_Cuts_MIRCut-CPXPARAM_MIP_Cuts_FlowCovers 6
Instance151
CPXPARAM_MIP_Cuts_CPXPARAM_MIP_Cuts_Disjunctive-CPXPARAM_MIP_Cuts_LiftProj-CPXPARAM_MIP_Cuts_MIRCut-CPXPARAM_MIP_Cuts_FlowCovers 1
Instance152
Gap

0.21%
0.21%
0.21%
0.21%
0
CPXPARAM_MIP_Cuts_CPXPARAM_MIP_Cuts_Disjunctive-CPXPARAM_MIP_Cuts_LiftProj-CPXPARAM_MIP_Cuts_MIRCut-CPXPARAM_MIP_Cuts_FlowCovers 0
Instance153
CPXPARAM_MIP_Cuts_CPXPARAM_MIP_Cuts_Disjunctive-CPXPARAM_MIP_Cuts_LiftProj-CPXPARAM_MIP_Cuts_MIRCut-CPXPARAM_MIP_Cuts_FlowCovers 0
Instance154
CPXPARAM_MIP_Cuts_CPXPARAM_MIP_Cuts_Disjunctive-CPXPARAM_MIP_Cuts_LiftProj-CPXPARAM_MIP_Cuts_MIRCut-CPXPARAM_MIP_Cuts_FlowCovers 0
Instance155
CPXPARAM_MIP_Cuts_CPXPARAM_MIP_Cuts_Disjunctive-CPXPARAM_MIP_Cuts_LiftProj-CPXPARAM_MIP_Cuts_MIRCut-CPXPARAM_MIP_Cuts_FlowCovers 1
Instance156
Gap


0.50%
0.50%
0.50%
0
CPXPARAM_MIP_Cuts_CPXPARAM_MIP_Cuts_Disjunctive-CPXPARAM_MIP_Cuts_LiftProj-CPXPARAM_MIP_Cuts_MIRCut-CPXPARAM_MIP_Cuts_FlowCovers 0
Instance157
CPXPARAM_MIP_Cuts_CPXPARAM_MIP_Cuts_Disjunctive-CPXPARAM_MIP_Cuts_LiftProj-CPXPARAM_MIP_Cuts_MIRCut-CPXPARAM_MIP_Cuts_FlowCovers 0
Instance158
CPXPARAM_MIP_Cuts_CPXPARAM_MIP_Cuts_Disjunctive-CPXPARAM_MIP_Cuts_LiftProj-CPXPARAM_MIP_Cuts_MIRCut-CPXPARAM_MIP_Cuts_FlowCovers 0
Instance159
CPXPARAM_MIP_Cuts_CPXPARAM_MIP_Cuts_Disjunctive-CPXPARAM_MIP_Cuts_LiftProj-CPXPARAM_MIP_Cuts_MIRCut-CPXPARAM_MIP_Cuts_FlowCovers 0
